db/inputs/1860822079268237237105962722997343078.smt2
(set-logic QF_FP)
(declare-const x0 (_ FloatingPoint 11 53))
(declare-const x1 (_ FloatingPoint 11 53))
(declare-const x2 (_ FloatingPoint 11 53))
(declare-const x3 (_ FloatingPoint 11 53))
(declare-const x4 (_ FloatingPoint 11 53))
(declare-const x5 (_ FloatingPoint 11 53))
(declare-const x6 (_ FloatingPoint 11 53))
(declare-const x7 (_ FloatingPoint 11 53))
(declare-const x8 (_ FloatingPoint 11 53))
(declare-const x9 (_ FloatingPoint 11 53))
(assert (fp.eq (fp.div RNE x4 x8) (fp.add RNE x3 x5)))
(assert (fp.lt (fp.mul RNE x0 x5) (fp.mul RNE x6 x1)))
(assert (fp.eq (fp.div RNE x7 x5) (fp.sub RNE x4 x1)))
(assert (fp.gt (fp.sub RNE x4 x6) (fp.div RNE x8 x4)))
(assert (fp.eq (fp.mul RNE x9 x0) (fp.add RNE x8 x4)))
(assert (fp.geq (fp.add RNE x8 x7) (fp.div RNE x0 x6)))
(assert (fp.lt (fp.add RNE x8 x0) (fp.add RNE x1 x7)))
(assert (fp.lt (fp.neg x1) (fp.neg x4)))
(assert (fp.gt (fp.neg x7) (fp.div RNE x3 x3)))
(assert (fp.gt (fp.mul RNE x2 x2) (fp.sub RNE x0 x1)))
(assert (fp.eq (fp.neg x8) (fp.neg x2)))
(assert (fp.geq (fp.mul RNE x2 x4) (fp.sub RNE x2 x6)))
(assert (fp.gt (fp.div RNE x8 x6) (fp.mul RNE x0 x8)))
(assert (fp.gt (fp.mul RNE x3 x7) (fp.div RNE x4 x0)))
(check-sat)
