db/data/1860822079268237237105962722997343078.z3.out
-------------------
2500.182196438
